CONTCAR\(4)                             
   1.00000000000000     
     3.1024356158088473    0.0000000000000000    0.0000000000000000
    -1.5512178079044237    2.6867691018019846    0.0000396745151140
     0.0000000000000002    0.0005432630109684   28.1633282308106345
   B    Mo
     1     2
Direct
  0.0000000000000000  0.0000000000000000  0.5000000000000000
  0.6666606676794481  0.3333213043588831  0.5399607703851741
  0.3333393323205518  0.6666786656411143  0.4600392296148260
 
  0.00000000E+00  0.00000000E+00  0.00000000E+00
  0.00000000E+00  0.00000000E+00  0.00000000E+00
  0.00000000E+00  0.00000000E+00  0.00000000E+00
